NAME : XML100_1242_16
DIMENSION : 101
NB_CLUSTERS : 3
CLUSTERING_ALG : KMeans
CLUSTERING_PARAMS : k(2)
CLUSTERS
1 0
2 1 3 4 5 7 8 9 10 12 13 15 16 17 18 19 20 21 22 23 24 25 26 27 29 30 31 32 33 34 36 37 39 40 41 44 45 46 47 48 50 51 52 53 55 56 57 58 59 60 61 63 64 65 66 68 69 71 72 75 76 77 78 79 80 81 84 85 86 87 89 90 91 93 94 95 96 97 98 100
3 2 6 11 14 28 35 38 42 43 49 54 62 67 70 73 74 82 83 88 92 99
EOF